\ Model Linear_Programming_Example
\ LP format - for model browsing. Use MPS format to capture full model detail.
Minimize
  - x - y - z - u + xy + yz + zu
Subject To
 R0: x + y <= 1
 R1: y + z <= 1
 R2: z + u <= 1
 R3: zu >= 1
 R4: yz + zu >= 1
 R5: xy >= 1
 R6: xy + yz >= 1
 fd_xz->u: - xz + xzu = 0
 fd_yu->x: - yu + xyu = 0
 Monotonicity: - yzu + xyzu >= 0
 R10: - z + xz + yz - xyz >= 0
 R11: - u + xu + yu - xyu >= 0
 R12: - zu + xzu + yzu - xyzu >= 0
 R13: x + y - xy >= 0
 R14: x + z - xz >= 0
 R15: x + u - xu >= 0
 R16: y + z - yz >= 0
 R17: y + u - yu >= 0
 R18: z + u - zu >= 0
 R19: - y + xy + yz - xyz >= 0
 R20: - u + xu + zu - xzu >= 0
 R21: - yu + xyu + yzu - xyzu >= 0
 R22: x + y - xy >= 0
 R23: x + z - xz >= 0
 R24: x + u - xu >= 0
 R25: y + z - yz >= 0
 R26: y + u - yu >= 0
 R27: z + u - zu >= 0
 R28: - y + xy + yu - xyu >= 0
 R29: - z + xz + zu - xzu >= 0
 R30: - yz + xyz + yzu - xyzu >= 0
 R31: x + y - xy >= 0
 R32: x + z - xz >= 0
 R33: x + u - xu >= 0
 R34: y + z - yz >= 0
 R35: y + u - yu >= 0
 R36: z + u - zu >= 0
 R37: - x + xy + xz - xyz >= 0
 R38: - u + yu + zu - yzu >= 0
 R39: - xu + xyu + xzu - xyzu >= 0
 R40: x + y - xy >= 0
 R41: x + z - xz >= 0
 R42: x + u - xu >= 0
 R43: y + z - yz >= 0
 R44: y + u - yu >= 0
 R45: z + u - zu >= 0
 R46: - x + xy + xu - xyu >= 0
 R47: - z + yz + zu - yzu >= 0
 R48: - xz + xyz + xzu - xyzu >= 0
 R49: x + y - xy >= 0
 R50: x + z - xz >= 0
 R51: x + u - xu >= 0
 R52: y + z - yz >= 0
 R53: y + u - yu >= 0
 R54: z + u - zu >= 0
 R55: - x + xz + xu - xzu >= 0
 R56: - y + yz + yu - yzu >= 0
 R57: - xy + xyz + xyu - xyzu >= 0
 R58: x + y - xy >= 0
 R59: x + z - xz >= 0
 R60: x + u - xu >= 0
 R61: y + z - yz >= 0
 R62: y + u - yu >= 0
 R63: z + u - zu >= 0
 Monotonicity: - xzu + xyzu >= 0
 R65: - z + xz + yz - xyz >= 0
 R66: - u + xu + yu - xyu >= 0
 R67: - zu + xzu + yzu - xyzu >= 0
 R68: x + y - xy >= 0
 R69: x + z - xz >= 0
 R70: x + u - xu >= 0
 R71: y + z - yz >= 0
 R72: y + u - yu >= 0
 R73: z + u - zu >= 0
 R74: - y + xy + yz - xyz >= 0
 R75: - u + xu + zu - xzu >= 0
 R76: - yu + xyu + yzu - xyzu >= 0
 R77: x + y - xy >= 0
 R78: x + z - xz >= 0
 R79: x + u - xu >= 0
 R80: y + z - yz >= 0
 R81: y + u - yu >= 0
 R82: z + u - zu >= 0
 R83: - y + xy + yu - xyu >= 0
 R84: - z + xz + zu - xzu >= 0
 R85: - yz + xyz + yzu - xyzu >= 0
 R86: x + y - xy >= 0
 R87: x + z - xz >= 0
 R88: x + u - xu >= 0
 R89: y + z - yz >= 0
 R90: y + u - yu >= 0
 R91: z + u - zu >= 0
 R92: - x + xy + xz - xyz >= 0
 R93: - u + yu + zu - yzu >= 0
 R94: - xu + xyu + xzu - xyzu >= 0
 R95: x + y - xy >= 0
 R96: x + z - xz >= 0
 R97: x + u - xu >= 0
 R98: y + z - yz >= 0
 R99: y + u - yu >= 0
 R100: z + u - zu >= 0
 R101: - x + xy + xu - xyu >= 0
 R102: - z + yz + zu - yzu >= 0
 R103: - xz + xyz + xzu - xyzu >= 0
 R104: x + y - xy >= 0
 R105: x + z - xz >= 0
 R106: x + u - xu >= 0
 R107: y + z - yz >= 0
 R108: y + u - yu >= 0
 R109: z + u - zu >= 0
 R110: - x + xz + xu - xzu >= 0
 R111: - y + yz + yu - yzu >= 0
 R112: - xy + xyz + xyu - xyzu >= 0
 R113: x + y - xy >= 0
 R114: x + z - xz >= 0
 R115: x + u - xu >= 0
 R116: y + z - yz >= 0
 R117: y + u - yu >= 0
 R118: z + u - zu >= 0
 Monotonicity: - xyu + xyzu >= 0
 R120: - z + xz + yz - xyz >= 0
 R121: - u + xu + yu - xyu >= 0
 R122: - zu + xzu + yzu - xyzu >= 0
 R123: x + y - xy >= 0
 R124: x + z - xz >= 0
 R125: x + u - xu >= 0
 R126: y + z - yz >= 0
 R127: y + u - yu >= 0
 R128: z + u - zu >= 0
 R129: - y + xy + yz - xyz >= 0
 R130: - u + xu + zu - xzu >= 0
 R131: - yu + xyu + yzu - xyzu >= 0
 R132: x + y - xy >= 0
 R133: x + z - xz >= 0
 R134: x + u - xu >= 0
 R135: y + z - yz >= 0
 R136: y + u - yu >= 0
 R137: z + u - zu >= 0
 R138: - y + xy + yu - xyu >= 0
 R139: - z + xz + zu - xzu >= 0
 R140: - yz + xyz + yzu - xyzu >= 0
 R141: x + y - xy >= 0
 R142: x + z - xz >= 0
 R143: x + u - xu >= 0
 R144: y + z - yz >= 0
 R145: y + u - yu >= 0
 R146: z + u - zu >= 0
 R147: - x + xy + xz - xyz >= 0
 R148: - u + yu + zu - yzu >= 0
 R149: - xu + xyu + xzu - xyzu >= 0
 R150: x + y - xy >= 0
 R151: x + z - xz >= 0
 R152: x + u - xu >= 0
 R153: y + z - yz >= 0
 R154: y + u - yu >= 0
 R155: z + u - zu >= 0
 R156: - x + xy + xu - xyu >= 0
 R157: - z + yz + zu - yzu >= 0
 R158: - xz + xyz + xzu - xyzu >= 0
 R159: x + y - xy >= 0
 R160: x + z - xz >= 0
 R161: x + u - xu >= 0
 R162: y + z - yz >= 0
 R163: y + u - yu >= 0
 R164: z + u - zu >= 0
 R165: - x + xz + xu - xzu >= 0
 R166: - y + yz + yu - yzu >= 0
 R167: - xy + xyz + xyu - xyzu >= 0
 R168: x + y - xy >= 0
 R169: x + z - xz >= 0
 R170: x + u - xu >= 0
 R171: y + z - yz >= 0
 R172: y + u - yu >= 0
 R173: z + u - zu >= 0
 Monotonicity: - xyz + xyzu >= 0
 R175: - z + xz + yz - xyz >= 0
 R176: - u + xu + yu - xyu >= 0
 R177: - zu + xzu + yzu - xyzu >= 0
 R178: x + y - xy >= 0
 R179: x + z - xz >= 0
 R180: x + u - xu >= 0
 R181: y + z - yz >= 0
 R182: y + u - yu >= 0
 R183: z + u - zu >= 0
 R184: - y + xy + yz - xyz >= 0
 R185: - u + xu + zu - xzu >= 0
 R186: - yu + xyu + yzu - xyzu >= 0
 R187: x + y - xy >= 0
 R188: x + z - xz >= 0
 R189: x + u - xu >= 0
 R190: y + z - yz >= 0
 R191: y + u - yu >= 0
 R192: z + u - zu >= 0
 R193: - y + xy + yu - xyu >= 0
 R194: - z + xz + zu - xzu >= 0
 R195: - yz + xyz + yzu - xyzu >= 0
 R196: x + y - xy >= 0
 R197: x + z - xz >= 0
 R198: x + u - xu >= 0
 R199: y + z - yz >= 0
 R200: y + u - yu >= 0
 R201: z + u - zu >= 0
 R202: - x + xy + xz - xyz >= 0
 R203: - u + yu + zu - yzu >= 0
 R204: - xu + xyu + xzu - xyzu >= 0
 R205: x + y - xy >= 0
 R206: x + z - xz >= 0
 R207: x + u - xu >= 0
 R208: y + z - yz >= 0
 R209: y + u - yu >= 0
 R210: z + u - zu >= 0
 R211: - x + xy + xu - xyu >= 0
 R212: - z + yz + zu - yzu >= 0
 R213: - xz + xyz + xzu - xyzu >= 0
 R214: x + y - xy >= 0
 R215: x + z - xz >= 0
 R216: x + u - xu >= 0
 R217: y + z - yz >= 0
 R218: y + u - yu >= 0
 R219: z + u - zu >= 0
 R220: - x + xz + xu - xzu >= 0
 R221: - y + yz + yu - yzu >= 0
 R222: - xy + xyz + xyu - xyzu >= 0
 R223: x + y - xy >= 0
 R224: x + z - xz >= 0
 R225: x + u - xu >= 0
 R226: y + z - yz >= 0
 R227: y + u - yu >= 0
 R228: z + u - zu >= 0
Bounds
End
